min

obj:

+43.2432432432 x0
+18.0443250504 x1
+119.471195185 x2
+119.471195185 x3
+100000 x8
+43.2432432432 x9
+18.0443250504 x10
+119.471195185 x11
+119.471195185 x12
+100000 x17
+43.2432432432 x18
+18.0443250504 x19
+119.471195185 x20
+119.471195185 x21
+100000 x26
+43.2432432432 x27
+18.0443250504 x28
+119.471195185 x29
+119.471195185 x30
+100000 x35
+43.2432432432 x36
+18.0443250504 x37
+119.471195185 x38
+119.471195185 x39
+100000 x44
+43.2432432432 x45
+18.0443250504 x46
+119.471195185 x47
+119.471195185 x48
+100000 x53
+43.2432432432 x54
+18.0443250504 x55
+119.471195185 x56
+119.471195185 x57
+100000 x62
+43.2432432432 x63
+18.0443250504 x64
+119.471195185 x65
+119.471195185 x66
+100000 x71
+43.2432432432 x72
+18.0443250504 x73
+119.471195185 x74
+119.471195185 x75
+100000 x80
+43.2432432432 x81
+18.0443250504 x82
+119.471195185 x83
+119.471195185 x84
+100000 x89
+43.2432432432 x90
+18.0443250504 x91
+119.471195185 x92
+119.471195185 x93
+100000 x98
+43.2432432432 x99
+18.0443250504 x100
+119.471195185 x101
+119.471195185 x102
+100000 x107
+43.2432432432 x108
+18.0443250504 x109
+119.471195185 x110
+119.471195185 x111
+100000 x116
+43.2432432432 x117
+18.0443250504 x118
+119.471195185 x119
+119.471195185 x120
+100000 x125
+43.2432432432 x126
+18.0443250504 x127
+119.471195185 x128
+119.471195185 x129
+100000 x134
+43.2432432432 x135
+18.0443250504 x136
+119.471195185 x137
+119.471195185 x138
+100000 x143
+43.2432432432 x144
+18.0443250504 x145
+119.471195185 x146
+119.471195185 x147
+100000 x152
+43.2432432432 x153
+18.0443250504 x154
+119.471195185 x155
+119.471195185 x156
+100000 x161
+43.2432432432 x162
+18.0443250504 x163
+119.471195185 x164
+119.471195185 x165
+100000 x170
+43.2432432432 x171
+18.0443250504 x172
+119.471195185 x173
+119.471195185 x174
+100000 x179
+43.2432432432 x180
+18.0443250504 x181
+119.471195185 x182
+119.471195185 x183
+100000 x188
+43.2432432432 x189
+18.0443250504 x190
+119.471195185 x191
+119.471195185 x192
+100000 x197
+43.2432432432 x198
+18.0443250504 x199
+119.471195185 x200
+119.471195185 x201
+100000 x206
+43.2432432432 x207
+18.0443250504 x208
+119.471195185 x209
+119.471195185 x210
+100000 x215


s.t.

c0:
+1 x0
>= -0

c1:
+1 x1
>= -0

c2:
+1 x2
>= -0

c3:
+1 x3
>= -0

c4:
+1 x4
>= -0

c5:
+1 x5
>= -0

c6:
+1 x6
>= -0

c7:
+1 x7
>= -0

c8:
+1 x8
>= -0

c9:
+1 x9
>= -0

c10:
+1 x10
>= -0

c11:
+1 x11
>= -0

c12:
+1 x12
>= -0

c13:
+1 x13
>= -0

c14:
+1 x14
>= -0

c15:
+1 x15
>= -0

c16:
+1 x16
>= -0

c17:
+1 x17
>= -0

c18:
+1 x18
>= -0

c19:
+1 x19
>= -0

c20:
+1 x20
>= -0

c21:
+1 x21
>= -0

c22:
+1 x22
>= -0

c23:
+1 x23
>= -0

c24:
+1 x24
>= -0

c25:
+1 x25
>= -0

c26:
+1 x26
>= -0

c27:
+1 x27
>= -0

c28:
+1 x28
>= -0

c29:
+1 x29
>= -0

c30:
+1 x30
>= -0

c31:
+1 x31
>= -0

c32:
+1 x32
>= -0

c33:
+1 x33
>= -0

c34:
+1 x34
>= -0

c35:
+1 x35
>= -0

c36:
+1 x36
>= -0

c37:
+1 x37
>= -0

c38:
+1 x38
>= -0

c39:
+1 x39
>= -0

c40:
+1 x40
>= -0

c41:
+1 x41
>= -0

c42:
+1 x42
>= -0

c43:
+1 x43
>= -0

c44:
+1 x44
>= -0

c45:
+1 x45
>= -0

c46:
+1 x46
>= -0

c47:
+1 x47
>= -0

c48:
+1 x48
>= -0

c49:
+1 x49
>= -0

c50:
+1 x50
>= -0

c51:
+1 x51
>= -0

c52:
+1 x52
>= -0

c53:
+1 x53
>= -0

c54:
+1 x54
>= -0

c55:
+1 x55
>= -0

c56:
+1 x56
>= -0

c57:
+1 x57
>= -0

c58:
+1 x58
>= -0

c59:
+1 x59
>= -0

c60:
+1 x60
>= -0

c61:
+1 x61
>= -0

c62:
+1 x62
>= -0

c63:
+1 x63
>= -0

c64:
+1 x64
>= -0

c65:
+1 x65
>= -0

c66:
+1 x66
>= -0

c67:
+1 x67
>= -0

c68:
+1 x68
>= -0

c69:
+1 x69
>= -0

c70:
+1 x70
>= -0

c71:
+1 x71
>= -0

c72:
+1 x72
>= -0

c73:
+1 x73
>= -0

c74:
+1 x74
>= -0

c75:
+1 x75
>= -0

c76:
+1 x76
>= -0

c77:
+1 x77
>= -0

c78:
+1 x78
>= -0

c79:
+1 x79
>= -0

c80:
+1 x80
>= -0

c81:
+1 x81
>= -0

c82:
+1 x82
>= -0

c83:
+1 x83
>= -0

c84:
+1 x84
>= -0

c85:
+1 x85
>= -0

c86:
+1 x86
>= -0

c87:
+1 x87
>= -0

c88:
+1 x88
>= -0

c89:
+1 x89
>= -0

c90:
+1 x90
>= -0

c91:
+1 x91
>= -0

c92:
+1 x92
>= -0

c93:
+1 x93
>= -0

c94:
+1 x94
>= -0

c95:
+1 x95
>= -0

c96:
+1 x96
>= -0

c97:
+1 x97
>= -0

c98:
+1 x98
>= -0

c99:
+1 x99
>= -0

c100:
+1 x100
>= -0

c101:
+1 x101
>= -0

c102:
+1 x102
>= -0

c103:
+1 x103
>= -0

c104:
+1 x104
>= -0

c105:
+1 x105
>= -0

c106:
+1 x106
>= -0

c107:
+1 x107
>= -0

c108:
+1 x108
>= -0

c109:
+1 x109
>= -0

c110:
+1 x110
>= -0

c111:
+1 x111
>= -0

c112:
+1 x112
>= -0

c113:
+1 x113
>= -0

c114:
+1 x114
>= -0

c115:
+1 x115
>= -0

c116:
+1 x116
>= -0

c117:
+1 x117
>= -0

c118:
+1 x118
>= -0

c119:
+1 x119
>= -0

c120:
+1 x120
>= -0

c121:
+1 x121
>= -0

c122:
+1 x122
>= -0

c123:
+1 x123
>= -0

c124:
+1 x124
>= -0

c125:
+1 x125
>= -0

c126:
+1 x126
>= -0

c127:
+1 x127
>= -0

c128:
+1 x128
>= -0

c129:
+1 x129
>= -0

c130:
+1 x130
>= -0

c131:
+1 x131
>= -0

c132:
+1 x132
>= -0

c133:
+1 x133
>= -0

c134:
+1 x134
>= -0

c135:
+1 x135
>= -0

c136:
+1 x136
>= -0

c137:
+1 x137
>= -0

c138:
+1 x138
>= -0

c139:
+1 x139
>= -0

c140:
+1 x140
>= -0

c141:
+1 x141
>= -0

c142:
+1 x142
>= -0

c143:
+1 x143
>= -0

c144:
+1 x144
>= -0

c145:
+1 x145
>= -0

c146:
+1 x146
>= -0

c147:
+1 x147
>= -0

c148:
+1 x148
>= -0

c149:
+1 x149
>= -0

c150:
+1 x150
>= -0

c151:
+1 x151
>= -0

c152:
+1 x152
>= -0

c153:
+1 x153
>= -0

c154:
+1 x154
>= -0

c155:
+1 x155
>= -0

c156:
+1 x156
>= -0

c157:
+1 x157
>= -0

c158:
+1 x158
>= -0

c159:
+1 x159
>= -0

c160:
+1 x160
>= -0

c161:
+1 x161
>= -0

c162:
+1 x162
>= -0

c163:
+1 x163
>= -0

c164:
+1 x164
>= -0

c165:
+1 x165
>= -0

c166:
+1 x166
>= -0

c167:
+1 x167
>= -0

c168:
+1 x168
>= -0

c169:
+1 x169
>= -0

c170:
+1 x170
>= -0

c171:
+1 x171
>= -0

c172:
+1 x172
>= -0

c173:
+1 x173
>= -0

c174:
+1 x174
>= -0

c175:
+1 x175
>= -0

c176:
+1 x176
>= -0

c177:
+1 x177
>= -0

c178:
+1 x178
>= -0

c179:
+1 x179
>= -0

c180:
+1 x180
>= -0

c181:
+1 x181
>= -0

c182:
+1 x182
>= -0

c183:
+1 x183
>= -0

c184:
+1 x184
>= -0

c185:
+1 x185
>= -0

c186:
+1 x186
>= -0

c187:
+1 x187
>= -0

c188:
+1 x188
>= -0

c189:
+1 x189
>= -0

c190:
+1 x190
>= -0

c191:
+1 x191
>= -0

c192:
+1 x192
>= -0

c193:
+1 x193
>= -0

c194:
+1 x194
>= -0

c195:
+1 x195
>= -0

c196:
+1 x196
>= -0

c197:
+1 x197
>= -0

c198:
+1 x198
>= -0

c199:
+1 x199
>= -0

c200:
+1 x200
>= -0

c201:
+1 x201
>= -0

c202:
+1 x202
>= -0

c203:
+1 x203
>= -0

c204:
+1 x204
>= -0

c205:
+1 x205
>= -0

c206:
+1 x206
>= -0

c207:
+1 x207
>= -0

c208:
+1 x208
>= -0

c209:
+1 x209
>= -0

c210:
+1 x210
>= -0

c211:
+1 x211
>= -0

c212:
+1 x212
>= -0

c213:
+1 x213
>= -0

c214:
+1 x214
>= -0

c215:
+1 x215
>= -0
c216:
+1 x0
<= +2362

c217:
+1 x1
<= +43672

c218:
+1 x2
<= +866

c219:
+1 x3
<= +8239

c220:
+1 x4
<= +522.432

c221:
+1 x5
<= +1.582

c222:
+1 x6
<= -0

c223:
+1 x7
<= +4466

c224:
+1 x8
<= +10000000000

c225:
+1 x9
<= +2362

c226:
+1 x10
<= +43672

c227:
+1 x11
<= +866

c228:
+1 x12
<= +8239

c229:
+1 x13
<= +507.92

c230:
+1 x14
<= +0.791

c231:
+1 x15
<= -0

c232:
+1 x16
<= +4466

c233:
+1 x17
<= +10000000000

c234:
+1 x18
<= +2362

c235:
+1 x19
<= +43672

c236:
+1 x20
<= +866

c237:
+1 x21
<= +8239

c238:
+1 x22
<= +464.384

c239:
+1 x23
<= +0.791

c240:
+1 x24
<= -0

c241:
+1 x25
<= +4466

c242:
+1 x26
<= +10000000000

c243:
+1 x27
<= +2362

c244:
+1 x28
<= +43672

c245:
+1 x29
<= +866

c246:
+1 x30
<= +8239

c247:
+1 x31
<= +449.872

c248:
+1 x32
<= +0.791

c249:
+1 x33
<= -0

c250:
+1 x34
<= +4466

c251:
+1 x35
<= +10000000000

c252:
+1 x36
<= +2362

c253:
+1 x37
<= +43672

c254:
+1 x38
<= +866

c255:
+1 x39
<= +8239

c256:
+1 x40
<= +435.36

c257:
+1 x41
<= +0.791

c258:
+1 x42
<= -0

c259:
+1 x43
<= +4466

c260:
+1 x44
<= +10000000000

c261:
+1 x45
<= +2362

c262:
+1 x46
<= +43672

c263:
+1 x47
<= +866

c264:
+1 x48
<= +8239

c265:
+1 x49
<= +420.848

c266:
+1 x50
<= +1.582

c267:
+1 x51
<= -0

c268:
+1 x52
<= +4466

c269:
+1 x53
<= +10000000000

c270:
+1 x54
<= +2362

c271:
+1 x55
<= +43672

c272:
+1 x56
<= +866

c273:
+1 x57
<= +8239

c274:
+1 x58
<= +435.36

c275:
+1 x59
<= +2.373

c276:
+1 x60
<= +399.54

c277:
+1 x61
<= +4466

c278:
+1 x62
<= +10000000000

c279:
+1 x63
<= +2362

c280:
+1 x64
<= +43672

c281:
+1 x65
<= +866

c282:
+1 x66
<= +8239

c283:
+1 x67
<= +406.336

c284:
+1 x68
<= +3.955

c285:
+1 x69
<= +1957.746

c286:
+1 x70
<= +4466

c287:
+1 x71
<= +10000000000

c288:
+1 x72
<= +2362

c289:
+1 x73
<= +43672

c290:
+1 x74
<= +866

c291:
+1 x75
<= +8239

c292:
+1 x76
<= +333.776

c293:
+1 x77
<= +7.119

c294:
+1 x78
<= +4195.17

c295:
+1 x79
<= +4466

c296:
+1 x80
<= +10000000000

c297:
+1 x81
<= +2362

c298:
+1 x82
<= +43672

c299:
+1 x83
<= +866

c300:
+1 x84
<= +8239

c301:
+1 x85
<= +275.728

c302:
+1 x86
<= +12.656

c303:
+1 x87
<= +6352.686

c304:
+1 x88
<= +4466

c305:
+1 x89
<= +10000000000

c306:
+1 x90
<= +2362

c307:
+1 x91
<= +43672

c308:
+1 x92
<= +866

c309:
+1 x93
<= +8239

c310:
+1 x94
<= +232.192

c311:
+1 x95
<= +22.148

c312:
+1 x96
<= +7511.352

c313:
+1 x97
<= +4466

c314:
+1 x98
<= +10000000000

c315:
+1 x99
<= +2362

c316:
+1 x100
<= +43672

c317:
+1 x101
<= +866

c318:
+1 x102
<= +8239

c319:
+1 x103
<= +217.68

c320:
+1 x104
<= +31.64

c321:
+1 x105
<= +8030.754

c322:
+1 x106
<= +4466

c323:
+1 x107
<= +10000000000

c324:
+1 x108
<= +2362

c325:
+1 x109
<= +43672

c326:
+1 x110
<= +866

c327:
+1 x111
<= +8239

c328:
+1 x112
<= +217.68

c329:
+1 x113
<= +38.759

c330:
+1 x114
<= +7950.846

c331:
+1 x115
<= +4466

c332:
+1 x116
<= +10000000000

c333:
+1 x117
<= +2362

c334:
+1 x118
<= +43672

c335:
+1 x119
<= +866

c336:
+1 x120
<= +8239

c337:
+1 x121
<= +232.192

c338:
+1 x122
<= +44.296

c339:
+1 x123
<= +7191.72

c340:
+1 x124
<= +4466

c341:
+1 x125
<= +10000000000

c342:
+1 x126
<= +2362

c343:
+1 x127
<= +43672

c344:
+1 x128
<= +866

c345:
+1 x129
<= +8239

c346:
+1 x130
<= +275.728

c347:
+1 x131
<= +52.206

c348:
+1 x132
<= +5833.284

c349:
+1 x133
<= +4466

c350:
+1 x134
<= +10000000000

c351:
+1 x135
<= +2362

c352:
+1 x136
<= +43672

c353:
+1 x137
<= +866

c354:
+1 x138
<= +8239

c355:
+1 x139
<= +319.264

c356:
+1 x140
<= +79.1

c357:
+1 x141
<= +3995.4

c358:
+1 x142
<= +4466

c359:
+1 x143
<= +10000000000

c360:
+1 x144
<= +2362

c361:
+1 x145
<= +43672

c362:
+1 x146
<= +866

c363:
+1 x147
<= +8239

c364:
+1 x148
<= +362.8

c365:
+1 x149
<= +105.994

c366:
+1 x150
<= +1797.93

c367:
+1 x151
<= +4466

c368:
+1 x152
<= +10000000000

c369:
+1 x153
<= +2362

c370:
+1 x154
<= +43672

c371:
+1 x155
<= +866

c372:
+1 x156
<= +8239

c373:
+1 x157
<= +464.384

c374:
+1 x158
<= +137.634

c375:
+1 x159
<= -0

c376:
+1 x160
<= +4466

c377:
+1 x161
<= +10000000000

c378:
+1 x162
<= +2362

c379:
+1 x163
<= +43672

c380:
+1 x164
<= +866

c381:
+1 x165
<= +8239

c382:
+1 x166
<= +609.504

c383:
+1 x167
<= +199.332

c384:
+1 x168
<= -0

c385:
+1 x169
<= +4466

c386:
+1 x170
<= +10000000000

c387:
+1 x171
<= +2362

c388:
+1 x172
<= +43672

c389:
+1 x173
<= +866

c390:
+1 x174
<= +8239

c391:
+1 x175
<= +769.136

c392:
+1 x176
<= +276.059

c393:
+1 x177
<= -0

c394:
+1 x178
<= +4466

c395:
+1 x179
<= +10000000000

c396:
+1 x180
<= +2362

c397:
+1 x181
<= +43672

c398:
+1 x182
<= +866

c399:
+1 x183
<= +8239

c400:
+1 x184
<= +914.256

c401:
+1 x185
<= +338.548

c402:
+1 x186
<= -0

c403:
+1 x187
<= +4466

c404:
+1 x188
<= +10000000000

c405:
+1 x189
<= +2362

c406:
+1 x190
<= +43672

c407:
+1 x191
<= +866

c408:
+1 x192
<= +8239

c409:
+1 x193
<= +1131.936

c410:
+1 x194
<= +361.487

c411:
+1 x195
<= -0

c412:
+1 x196
<= +4466

c413:
+1 x197
<= +10000000000

c414:
+1 x198
<= +2362

c415:
+1 x199
<= +43672

c416:
+1 x200
<= +866

c417:
+1 x201
<= +8239

c418:
+1 x202
<= +1697.904

c419:
+1 x203
<= +427.931

c420:
+1 x204
<= -0

c421:
+1 x205
<= +4466

c422:
+1 x206
<= +10000000000

c423:
+1 x207
<= +2362

c424:
+1 x208
<= +43672

c425:
+1 x209
<= +866

c426:
+1 x210
<= +8239

c427:
+1 x211
<= +1639.856

c428:
+1 x212
<= +440.587

c429:
+1 x213
<= -0

c430:
+1 x214
<= +4466

c431:
+1 x215
<= +10000000000
c432:
+1 x216
>= -0

c433:
+1 x217
>= -0

c434:
+1 x218
>= -0

c435:
+1 x219
>= -0

c436:
+1 x220
>= -0

c437:
+1 x221
>= -0

c438:
+1 x222
>= -0

c439:
+1 x223
>= -0

c440:
+1 x224
>= -0

c441:
+1 x225
>= -0

c442:
+1 x226
>= -0

c443:
+1 x227
>= -0

c444:
+1 x228
>= -0

c445:
+1 x229
>= -0

c446:
+1 x230
>= -0

c447:
+1 x231
>= -0

c448:
+1 x232
>= -0

c449:
+1 x233
>= -0

c450:
+1 x234
>= -0

c451:
+1 x235
>= -0

c452:
+1 x236
>= -0

c453:
+1 x237
>= -0

c454:
+1 x238
>= -0

c455:
+1 x239
>= -0

c456:
+1 x240
>= -0

c457:
+1 x241
>= -0

c458:
+1 x242
>= -0

c459:
+1 x243
>= -0

c460:
+1 x244
>= -0

c461:
+1 x245
>= -0

c462:
+1 x246
>= -0

c463:
+1 x247
>= -0

c464:
+1 x248
>= -0

c465:
+1 x249
>= -0

c466:
+1 x250
>= -0

c467:
+1 x251
>= -0

c468:
+1 x252
>= -0

c469:
+1 x253
>= -0

c470:
+1 x254
>= -0

c471:
+1 x255
>= -0

c472:
+1 x256
>= -0

c473:
+1 x257
>= -0

c474:
+1 x258
>= -0

c475:
+1 x259
>= -0

c476:
+1 x260
>= -0

c477:
+1 x261
>= -0

c478:
+1 x262
>= -0

c479:
+1 x263
>= -0
c480:
+1 x216
<= +4000

c481:
+1 x217
<= +10000

c482:
+1 x218
<= +4000

c483:
+1 x219
<= +10000

c484:
+1 x220
<= +4000

c485:
+1 x221
<= +10000

c486:
+1 x222
<= +4000

c487:
+1 x223
<= +10000

c488:
+1 x224
<= +4000

c489:
+1 x225
<= +10000

c490:
+1 x226
<= +4000

c491:
+1 x227
<= +10000

c492:
+1 x228
<= +4000

c493:
+1 x229
<= +10000

c494:
+1 x230
<= +4000

c495:
+1 x231
<= +10000

c496:
+1 x232
<= +4000

c497:
+1 x233
<= +10000

c498:
+1 x234
<= +4000

c499:
+1 x235
<= +10000

c500:
+1 x236
<= +4000

c501:
+1 x237
<= +10000

c502:
+1 x238
<= +4000

c503:
+1 x239
<= +10000

c504:
+1 x240
<= +4000

c505:
+1 x241
<= +10000

c506:
+1 x242
<= +4000

c507:
+1 x243
<= +10000

c508:
+1 x244
<= +4000

c509:
+1 x245
<= +10000

c510:
+1 x246
<= +4000

c511:
+1 x247
<= +10000

c512:
+1 x248
<= +4000

c513:
+1 x249
<= +10000

c514:
+1 x250
<= +4000

c515:
+1 x251
<= +10000

c516:
+1 x252
<= +4000

c517:
+1 x253
<= +10000

c518:
+1 x254
<= +4000

c519:
+1 x255
<= +10000

c520:
+1 x256
<= +4000

c521:
+1 x257
<= +10000

c522:
+1 x258
<= +4000

c523:
+1 x259
<= +10000

c524:
+1 x260
<= +4000

c525:
+1 x261
<= +10000

c526:
+1 x262
<= +4000

c527:
+1 x263
<= +10000
c528:
+1 x264
>= -0

c529:
+1 x265
>= -0

c530:
+1 x266
>= -0

c531:
+1 x267
>= -0

c532:
+1 x268
>= -0

c533:
+1 x269
>= -0

c534:
+1 x270
>= -0

c535:
+1 x271
>= -0

c536:
+1 x272
>= -0

c537:
+1 x273
>= -0

c538:
+1 x274
>= -0

c539:
+1 x275
>= -0

c540:
+1 x276
>= -0

c541:
+1 x277
>= -0

c542:
+1 x278
>= -0

c543:
+1 x279
>= -0

c544:
+1 x280
>= -0

c545:
+1 x281
>= -0

c546:
+1 x282
>= -0

c547:
+1 x283
>= -0

c548:
+1 x284
>= -0

c549:
+1 x285
>= -0

c550:
+1 x286
>= -0

c551:
+1 x287
>= -0

c552:
+1 x288
>= -0

c553:
+1 x289
>= -0

c554:
+1 x290
>= -0

c555:
+1 x291
>= -0

c556:
+1 x292
>= -0

c557:
+1 x293
>= -0

c558:
+1 x294
>= -0

c559:
+1 x295
>= -0

c560:
+1 x296
>= -0

c561:
+1 x297
>= -0

c562:
+1 x298
>= -0

c563:
+1 x299
>= -0

c564:
+1 x300
>= -0

c565:
+1 x301
>= -0

c566:
+1 x302
>= -0

c567:
+1 x303
>= -0

c568:
+1 x304
>= -0

c569:
+1 x305
>= -0

c570:
+1 x306
>= -0

c571:
+1 x307
>= -0

c572:
+1 x308
>= -0

c573:
+1 x309
>= -0

c574:
+1 x310
>= -0

c575:
+1 x311
>= -0
c576:
+1 x264
<= +4000

c577:
+1 x265
<= +10000

c578:
+1 x266
<= +4000

c579:
+1 x267
<= +10000

c580:
+1 x268
<= +4000

c581:
+1 x269
<= +10000

c582:
+1 x270
<= +4000

c583:
+1 x271
<= +10000

c584:
+1 x272
<= +4000

c585:
+1 x273
<= +10000

c586:
+1 x274
<= +4000

c587:
+1 x275
<= +10000

c588:
+1 x276
<= +4000

c589:
+1 x277
<= +10000

c590:
+1 x278
<= +4000

c591:
+1 x279
<= +10000

c592:
+1 x280
<= +4000

c593:
+1 x281
<= +10000

c594:
+1 x282
<= +4000

c595:
+1 x283
<= +10000

c596:
+1 x284
<= +4000

c597:
+1 x285
<= +10000

c598:
+1 x286
<= +4000

c599:
+1 x287
<= +10000

c600:
+1 x288
<= +4000

c601:
+1 x289
<= +10000

c602:
+1 x290
<= +4000

c603:
+1 x291
<= +10000

c604:
+1 x292
<= +4000

c605:
+1 x293
<= +10000

c606:
+1 x294
<= +4000

c607:
+1 x295
<= +10000

c608:
+1 x296
<= +4000

c609:
+1 x297
<= +10000

c610:
+1 x298
<= +4000

c611:
+1 x299
<= +10000

c612:
+1 x300
<= +4000

c613:
+1 x301
<= +10000

c614:
+1 x302
<= +4000

c615:
+1 x303
<= +10000

c616:
+1 x304
<= +4000

c617:
+1 x305
<= +10000

c618:
+1 x306
<= +4000

c619:
+1 x307
<= +10000

c620:
+1 x308
<= +4000

c621:
+1 x309
<= +10000

c622:
+1 x310
<= +4000

c623:
+1 x311
<= +10000
c624:
+1 x312
>= -0

c625:
+1 x313
>= -0

c626:
+1 x314
>= -0

c627:
+1 x315
>= -0

c628:
+1 x316
>= -0

c629:
+1 x317
>= -0

c630:
+1 x318
>= -0

c631:
+1 x319
>= -0

c632:
+1 x320
>= -0

c633:
+1 x321
>= -0

c634:
+1 x322
>= -0

c635:
+1 x323
>= -0

c636:
+1 x324
>= -0

c637:
+1 x325
>= -0

c638:
+1 x326
>= -0

c639:
+1 x327
>= -0

c640:
+1 x328
>= -0

c641:
+1 x329
>= -0

c642:
+1 x330
>= -0

c643:
+1 x331
>= -0

c644:
+1 x332
>= -0

c645:
+1 x333
>= -0

c646:
+1 x334
>= -0

c647:
+1 x335
>= -0

c648:
+1 x336
>= -0

c649:
+1 x337
>= -0

c650:
+1 x338
>= -0

c651:
+1 x339
>= -0

c652:
+1 x340
>= -0

c653:
+1 x341
>= -0

c654:
+1 x342
>= -0

c655:
+1 x343
>= -0

c656:
+1 x344
>= -0

c657:
+1 x345
>= -0

c658:
+1 x346
>= -0

c659:
+1 x347
>= -0

c660:
+1 x348
>= -0

c661:
+1 x349
>= -0

c662:
+1 x350
>= -0

c663:
+1 x351
>= -0

c664:
+1 x352
>= -0

c665:
+1 x353
>= -0

c666:
+1 x354
>= -0

c667:
+1 x355
>= -0

c668:
+1 x356
>= -0

c669:
+1 x357
>= -0

c670:
+1 x358
>= -0

c671:
+1 x359
>= -0
c672:
+1 x312
<= +8000

c673:
+1 x313
<= +10000000

c674:
+1 x314
<= +8000

c675:
+1 x315
<= +10000000

c676:
+1 x316
<= +8000

c677:
+1 x317
<= +10000000

c678:
+1 x318
<= +8000

c679:
+1 x319
<= +10000000

c680:
+1 x320
<= +8000

c681:
+1 x321
<= +10000000

c682:
+1 x322
<= +8000

c683:
+1 x323
<= +10000000

c684:
+1 x324
<= +8000

c685:
+1 x325
<= +10000000

c686:
+1 x326
<= +8000

c687:
+1 x327
<= +10000000

c688:
+1 x328
<= +8000

c689:
+1 x329
<= +10000000

c690:
+1 x330
<= +8000

c691:
+1 x331
<= +10000000

c692:
+1 x332
<= +8000

c693:
+1 x333
<= +10000000

c694:
+1 x334
<= +8000

c695:
+1 x335
<= +10000000

c696:
+1 x336
<= +8000

c697:
+1 x337
<= +10000000

c698:
+1 x338
<= +8000

c699:
+1 x339
<= +10000000

c700:
+1 x340
<= +8000

c701:
+1 x341
<= +10000000

c702:
+1 x342
<= +8000

c703:
+1 x343
<= +10000000

c704:
+1 x344
<= +8000

c705:
+1 x345
<= +10000000

c706:
+1 x346
<= +8000

c707:
+1 x347
<= +10000000

c708:
+1 x348
<= +8000

c709:
+1 x349
<= +10000000

c710:
+1 x350
<= +8000

c711:
+1 x351
<= +10000000

c712:
+1 x352
<= +8000

c713:
+1 x353
<= +10000000

c714:
+1 x354
<= +8000

c715:
+1 x355
<= +10000000

c716:
+1 x356
<= +8000

c717:
+1 x357
<= +10000000

c718:
+1 x358
<= +8000

c719:
+1 x359
<= +10000000
c720:
+1 x0
+1 x1
+1 x2
+1 x3
+1 x4
+1 x5
+1 x6
+1 x7
+1 x8
+1 x216
+1 x217
-1 x264
-1 x265
= +51782

c721:
+1 x9
+1 x10
+1 x11
+1 x12
+1 x13
+1 x14
+1 x15
+1 x16
+1 x17
+1 x218
+1 x219
-1 x266
-1 x267
= +51570

c722:
+1 x18
+1 x19
+1 x20
+1 x21
+1 x22
+1 x23
+1 x24
+1 x25
+1 x26
+1 x220
+1 x221
-1 x268
-1 x269
= +52547

c723:
+1 x27
+1 x28
+1 x29
+1 x30
+1 x31
+1 x32
+1 x33
+1 x34
+1 x35
+1 x222
+1 x223
-1 x270
-1 x271
= +56292

c724:
+1 x36
+1 x37
+1 x38
+1 x39
+1 x40
+1 x41
+1 x42
+1 x43
+1 x44
+1 x224
+1 x225
-1 x272
-1 x273
= +64850

c725:
+1 x45
+1 x46
+1 x47
+1 x48
+1 x49
+1 x50
+1 x51
+1 x52
+1 x53
+1 x226
+1 x227
-1 x274
-1 x275
= +70903

c726:
+1 x54
+1 x55
+1 x56
+1 x57
+1 x58
+1 x59
+1 x60
+1 x61
+1 x62
+1 x228
+1 x229
-1 x276
-1 x277
= +74158

c727:
+1 x63
+1 x64
+1 x65
+1 x66
+1 x67
+1 x68
+1 x69
+1 x70
+1 x71
+1 x230
+1 x231
-1 x278
-1 x279
= +75805

c728:
+1 x72
+1 x73
+1 x74
+1 x75
+1 x76
+1 x77
+1 x78
+1 x79
+1 x80
+1 x232
+1 x233
-1 x280
-1 x281
= +77047

c729:
+1 x81
+1 x82
+1 x83
+1 x84
+1 x85
+1 x86
+1 x87
+1 x88
+1 x89
+1 x234
+1 x235
-1 x282
-1 x283
= +78083

c730:
+1 x90
+1 x91
+1 x92
+1 x93
+1 x94
+1 x95
+1 x96
+1 x97
+1 x98
+1 x236
+1 x237
-1 x284
-1 x285
= +77608

c731:
+1 x99
+1 x100
+1 x101
+1 x102
+1 x103
+1 x104
+1 x105
+1 x106
+1 x107
+1 x238
+1 x239
-1 x286
-1 x287
= +77017

c732:
+1 x108
+1 x109
+1 x110
+1 x111
+1 x112
+1 x113
+1 x114
+1 x115
+1 x116
+1 x240
+1 x241
-1 x288
-1 x289
= +76234

c733:
+1 x117
+1 x118
+1 x119
+1 x120
+1 x121
+1 x122
+1 x123
+1 x124
+1 x125
+1 x242
+1 x243
-1 x290
-1 x291
= +75204

c734:
+1 x126
+1 x127
+1 x128
+1 x129
+1 x130
+1 x131
+1 x132
+1 x133
+1 x134
+1 x244
+1 x245
-1 x292
-1 x293
= +73904

c735:
+1 x135
+1 x136
+1 x137
+1 x138
+1 x139
+1 x140
+1 x141
+1 x142
+1 x143
+1 x246
+1 x247
-1 x294
-1 x295
= +73512

c736:
+1 x144
+1 x145
+1 x146
+1 x147
+1 x148
+1 x149
+1 x150
+1 x151
+1 x152
+1 x248
+1 x249
-1 x296
-1 x297
= +73430

c737:
+1 x153
+1 x154
+1 x155
+1 x156
+1 x157
+1 x158
+1 x159
+1 x160
+1 x161
+1 x250
+1 x251
-1 x298
-1 x299
= +75111

c738:
+1 x162
+1 x163
+1 x164
+1 x165
+1 x166
+1 x167
+1 x168
+1 x169
+1 x170
+1 x252
+1 x253
-1 x300
-1 x301
= +73654

c739:
+1 x171
+1 x172
+1 x173
+1 x174
+1 x175
+1 x176
+1 x177
+1 x178
+1 x179
+1 x254
+1 x255
-1 x302
-1 x303
= +69165

c740:
+1 x180
+1 x181
+1 x182
+1 x183
+1 x184
+1 x185
+1 x186
+1 x187
+1 x188
+1 x256
+1 x257
-1 x304
-1 x305
= +63937

c741:
+1 x189
+1 x190
+1 x191
+1 x192
+1 x193
+1 x194
+1 x195
+1 x196
+1 x197
+1 x258
+1 x259
-1 x306
-1 x307
= +58772

c742:
+1 x198
+1 x199
+1 x200
+1 x201
+1 x202
+1 x203
+1 x204
+1 x205
+1 x206
+1 x260
+1 x261
-1 x308
-1 x309
= +55384

c743:
+1 x207
+1 x208
+1 x209
+1 x210
+1 x211
+1 x212
+1 x213
+1 x214
+1 x215
+1 x262
+1 x263
-1 x310
-1 x311
= +53383
c744:
-1.05263157895 x216
+0.95 x264
-1 x312
= -6400

c745:
-1 x217
+1 x265
-1 x313
-1 x361
= -8000001

c746:
-1.05263157895 x218
+0.95 x266
+1 x312
-1 x314
= -0

c747:
-1 x219
+1 x267
+1 x313
-1 x315
-1 x363
= -1

c748:
-1.05263157895 x220
+0.95 x268
+1 x314
-1 x316
= -0

c749:
-1 x221
+1 x269
+1 x315
-1 x317
-1 x365
= -1

c750:
-1.05263157895 x222
+0.95 x270
+1 x316
-1 x318
= -0

c751:
-1 x223
+1 x271
+1 x317
-1 x319
-1 x367
= -1

c752:
-1.05263157895 x224
+0.95 x272
+1 x318
-1 x320
= -0

c753:
-1 x225
+1 x273
+1 x319
-1 x321
-1 x369
= -1

c754:
-1.05263157895 x226
+0.95 x274
+1 x320
-1 x322
= -0

c755:
-1 x227
+1 x275
+1 x321
-1 x323
-1 x371
= -1

c756:
-1.05263157895 x228
+0.95 x276
+1 x322
-1 x324
= -0

c757:
-1 x229
+1 x277
+1 x323
-1 x325
-1 x373
= -1

c758:
-1.05263157895 x230
+0.95 x278
+1 x324
-1 x326
= -0

c759:
-1 x231
+1 x279
+1 x325
-1 x327
-1 x375
= -1

c760:
-1.05263157895 x232
+0.95 x280
+1 x326
-1 x328
= -0

c761:
-1 x233
+1 x281
+1 x327
-1 x329
-1 x377
= -1

c762:
-1.05263157895 x234
+0.95 x282
+1 x328
-1 x330
= -0

c763:
-1 x235
+1 x283
+1 x329
-1 x331
-1 x379
= -1

c764:
-1.05263157895 x236
+0.95 x284
+1 x330
-1 x332
= -0

c765:
-1 x237
+1 x285
+1 x331
-1 x333
-1 x381
= -1

c766:
-1.05263157895 x238
+0.95 x286
+1 x332
-1 x334
= -0

c767:
-1 x239
+1 x287
+1 x333
-1 x335
-1 x383
= -1

c768:
-1.05263157895 x240
+0.95 x288
+1 x334
-1 x336
= -0

c769:
-1 x241
+1 x289
+1 x335
-1 x337
-1 x385
= -1

c770:
-1.05263157895 x242
+0.95 x290
+1 x336
-1 x338
= -0

c771:
-1 x243
+1 x291
+1 x337
-1 x339
-1 x387
= -1

c772:
-1.05263157895 x244
+0.95 x292
+1 x338
-1 x340
= -0

c773:
-1 x245
+1 x293
+1 x339
-1 x341
-1 x389
= -1

c774:
-1.05263157895 x246
+0.95 x294
+1 x340
-1 x342
= -0

c775:
-1 x247
+1 x295
+1 x341
-1 x343
-1 x391
= -1

c776:
-1.05263157895 x248
+0.95 x296
+1 x342
-1 x344
= -0

c777:
-1 x249
+1 x297
+1 x343
-1 x345
-1 x393
= -1

c778:
-1.05263157895 x250
+0.95 x298
+1 x344
-1 x346
= -0

c779:
-1 x251
+1 x299
+1 x345
-1 x347
-1 x395
= -1

c780:
-1.05263157895 x252
+0.95 x300
+1 x346
-1 x348
= -0

c781:
-1 x253
+1 x301
+1 x347
-1 x349
-1 x397
= -1

c782:
-1.05263157895 x254
+0.95 x302
+1 x348
-1 x350
= -0

c783:
-1 x255
+1 x303
+1 x349
-1 x351
-1 x399
= -1

c784:
-1.05263157895 x256
+0.95 x304
+1 x350
-1 x352
= -0

c785:
-1 x257
+1 x305
+1 x351
-1 x353
-1 x401
= -1

c786:
-1.05263157895 x258
+0.95 x306
+1 x352
-1 x354
= -0

c787:
-1 x259
+1 x307
+1 x353
-1 x355
-1 x403
= -1

c788:
-1.05263157895 x260
+0.95 x308
+1 x354
-1 x356
= -0

c789:
-1 x261
+1 x309
+1 x355
-1 x357
-1 x405
= -1

c790:
-1.05263157895 x262
+0.95 x310
+1 x356
-1 x358
= -0

c791:
-1 x263
+1 x311
+1 x357
-1 x359
-1 x407
= -1


bounds

-inf <= x0 <= +inf
-inf <= x1 <= +inf
-inf <= x2 <= +inf
-inf <= x3 <= +inf
-inf <= x4 <= +inf
-inf <= x5 <= +inf
-inf <= x6 <= +inf
-inf <= x7 <= +inf
-inf <= x8 <= +inf
-inf <= x9 <= +inf
-inf <= x10 <= +inf
-inf <= x11 <= +inf
-inf <= x12 <= +inf
-inf <= x13 <= +inf
-inf <= x14 <= +inf
-inf <= x15 <= +inf
-inf <= x16 <= +inf
-inf <= x17 <= +inf
-inf <= x18 <= +inf
-inf <= x19 <= +inf
-inf <= x20 <= +inf
-inf <= x21 <= +inf
-inf <= x22 <= +inf
-inf <= x23 <= +inf
-inf <= x24 <= +inf
-inf <= x25 <= +inf
-inf <= x26 <= +inf
-inf <= x27 <= +inf
-inf <= x28 <= +inf
-inf <= x29 <= +inf
-inf <= x30 <= +inf
-inf <= x31 <= +inf
-inf <= x32 <= +inf
-inf <= x33 <= +inf
-inf <= x34 <= +inf
-inf <= x35 <= +inf
-inf <= x36 <= +inf
-inf <= x37 <= +inf
-inf <= x38 <= +inf
-inf <= x39 <= +inf
-inf <= x40 <= +inf
-inf <= x41 <= +inf
-inf <= x42 <= +inf
-inf <= x43 <= +inf
-inf <= x44 <= +inf
-inf <= x45 <= +inf
-inf <= x46 <= +inf
-inf <= x47 <= +inf
-inf <= x48 <= +inf
-inf <= x49 <= +inf
-inf <= x50 <= +inf
-inf <= x51 <= +inf
-inf <= x52 <= +inf
-inf <= x53 <= +inf
-inf <= x54 <= +inf
-inf <= x55 <= +inf
-inf <= x56 <= +inf
-inf <= x57 <= +inf
-inf <= x58 <= +inf
-inf <= x59 <= +inf
-inf <= x60 <= +inf
-inf <= x61 <= +inf
-inf <= x62 <= +inf
-inf <= x63 <= +inf
-inf <= x64 <= +inf
-inf <= x65 <= +inf
-inf <= x66 <= +inf
-inf <= x67 <= +inf
-inf <= x68 <= +inf
-inf <= x69 <= +inf
-inf <= x70 <= +inf
-inf <= x71 <= +inf
-inf <= x72 <= +inf
-inf <= x73 <= +inf
-inf <= x74 <= +inf
-inf <= x75 <= +inf
-inf <= x76 <= +inf
-inf <= x77 <= +inf
-inf <= x78 <= +inf
-inf <= x79 <= +inf
-inf <= x80 <= +inf
-inf <= x81 <= +inf
-inf <= x82 <= +inf
-inf <= x83 <= +inf
-inf <= x84 <= +inf
-inf <= x85 <= +inf
-inf <= x86 <= +inf
-inf <= x87 <= +inf
-inf <= x88 <= +inf
-inf <= x89 <= +inf
-inf <= x90 <= +inf
-inf <= x91 <= +inf
-inf <= x92 <= +inf
-inf <= x93 <= +inf
-inf <= x94 <= +inf
-inf <= x95 <= +inf
-inf <= x96 <= +inf
-inf <= x97 <= +inf
-inf <= x98 <= +inf
-inf <= x99 <= +inf
-inf <= x100 <= +inf
-inf <= x101 <= +inf
-inf <= x102 <= +inf
-inf <= x103 <= +inf
-inf <= x104 <= +inf
-inf <= x105 <= +inf
-inf <= x106 <= +inf
-inf <= x107 <= +inf
-inf <= x108 <= +inf
-inf <= x109 <= +inf
-inf <= x110 <= +inf
-inf <= x111 <= +inf
-inf <= x112 <= +inf
-inf <= x113 <= +inf
-inf <= x114 <= +inf
-inf <= x115 <= +inf
-inf <= x116 <= +inf
-inf <= x117 <= +inf
-inf <= x118 <= +inf
-inf <= x119 <= +inf
-inf <= x120 <= +inf
-inf <= x121 <= +inf
-inf <= x122 <= +inf
-inf <= x123 <= +inf
-inf <= x124 <= +inf
-inf <= x125 <= +inf
-inf <= x126 <= +inf
-inf <= x127 <= +inf
-inf <= x128 <= +inf
-inf <= x129 <= +inf
-inf <= x130 <= +inf
-inf <= x131 <= +inf
-inf <= x132 <= +inf
-inf <= x133 <= +inf
-inf <= x134 <= +inf
-inf <= x135 <= +inf
-inf <= x136 <= +inf
-inf <= x137 <= +inf
-inf <= x138 <= +inf
-inf <= x139 <= +inf
-inf <= x140 <= +inf
-inf <= x141 <= +inf
-inf <= x142 <= +inf
-inf <= x143 <= +inf
-inf <= x144 <= +inf
-inf <= x145 <= +inf
-inf <= x146 <= +inf
-inf <= x147 <= +inf
-inf <= x148 <= +inf
-inf <= x149 <= +inf
-inf <= x150 <= +inf
-inf <= x151 <= +inf
-inf <= x152 <= +inf
-inf <= x153 <= +inf
-inf <= x154 <= +inf
-inf <= x155 <= +inf
-inf <= x156 <= +inf
-inf <= x157 <= +inf
-inf <= x158 <= +inf
-inf <= x159 <= +inf
-inf <= x160 <= +inf
-inf <= x161 <= +inf
-inf <= x162 <= +inf
-inf <= x163 <= +inf
-inf <= x164 <= +inf
-inf <= x165 <= +inf
-inf <= x166 <= +inf
-inf <= x167 <= +inf
-inf <= x168 <= +inf
-inf <= x169 <= +inf
-inf <= x170 <= +inf
-inf <= x171 <= +inf
-inf <= x172 <= +inf
-inf <= x173 <= +inf
-inf <= x174 <= +inf
-inf <= x175 <= +inf
-inf <= x176 <= +inf
-inf <= x177 <= +inf
-inf <= x178 <= +inf
-inf <= x179 <= +inf
-inf <= x180 <= +inf
-inf <= x181 <= +inf
-inf <= x182 <= +inf
-inf <= x183 <= +inf
-inf <= x184 <= +inf
-inf <= x185 <= +inf
-inf <= x186 <= +inf
-inf <= x187 <= +inf
-inf <= x188 <= +inf
-inf <= x189 <= +inf
-inf <= x190 <= +inf
-inf <= x191 <= +inf
-inf <= x192 <= +inf
-inf <= x193 <= +inf
-inf <= x194 <= +inf
-inf <= x195 <= +inf
-inf <= x196 <= +inf
-inf <= x197 <= +inf
-inf <= x198 <= +inf
-inf <= x199 <= +inf
-inf <= x200 <= +inf
-inf <= x201 <= +inf
-inf <= x202 <= +inf
-inf <= x203 <= +inf
-inf <= x204 <= +inf
-inf <= x205 <= +inf
-inf <= x206 <= +inf
-inf <= x207 <= +inf
-inf <= x208 <= +inf
-inf <= x209 <= +inf
-inf <= x210 <= +inf
-inf <= x211 <= +inf
-inf <= x212 <= +inf
-inf <= x213 <= +inf
-inf <= x214 <= +inf
-inf <= x215 <= +inf
-inf <= x216 <= +inf
-inf <= x217 <= +inf
-inf <= x218 <= +inf
-inf <= x219 <= +inf
-inf <= x220 <= +inf
-inf <= x221 <= +inf
-inf <= x222 <= +inf
-inf <= x223 <= +inf
-inf <= x224 <= +inf
-inf <= x225 <= +inf
-inf <= x226 <= +inf
-inf <= x227 <= +inf
-inf <= x228 <= +inf
-inf <= x229 <= +inf
-inf <= x230 <= +inf
-inf <= x231 <= +inf
-inf <= x232 <= +inf
-inf <= x233 <= +inf
-inf <= x234 <= +inf
-inf <= x235 <= +inf
-inf <= x236 <= +inf
-inf <= x237 <= +inf
-inf <= x238 <= +inf
-inf <= x239 <= +inf
-inf <= x240 <= +inf
-inf <= x241 <= +inf
-inf <= x242 <= +inf
-inf <= x243 <= +inf
-inf <= x244 <= +inf
-inf <= x245 <= +inf
-inf <= x246 <= +inf
-inf <= x247 <= +inf
-inf <= x248 <= +inf
-inf <= x249 <= +inf
-inf <= x250 <= +inf
-inf <= x251 <= +inf
-inf <= x252 <= +inf
-inf <= x253 <= +inf
-inf <= x254 <= +inf
-inf <= x255 <= +inf
-inf <= x256 <= +inf
-inf <= x257 <= +inf
-inf <= x258 <= +inf
-inf <= x259 <= +inf
-inf <= x260 <= +inf
-inf <= x261 <= +inf
-inf <= x262 <= +inf
-inf <= x263 <= +inf
-inf <= x264 <= +inf
-inf <= x265 <= +inf
-inf <= x266 <= +inf
-inf <= x267 <= +inf
-inf <= x268 <= +inf
-inf <= x269 <= +inf
-inf <= x270 <= +inf
-inf <= x271 <= +inf
-inf <= x272 <= +inf
-inf <= x273 <= +inf
-inf <= x274 <= +inf
-inf <= x275 <= +inf
-inf <= x276 <= +inf
-inf <= x277 <= +inf
-inf <= x278 <= +inf
-inf <= x279 <= +inf
-inf <= x280 <= +inf
-inf <= x281 <= +inf
-inf <= x282 <= +inf
-inf <= x283 <= +inf
-inf <= x284 <= +inf
-inf <= x285 <= +inf
-inf <= x286 <= +inf
-inf <= x287 <= +inf
-inf <= x288 <= +inf
-inf <= x289 <= +inf
-inf <= x290 <= +inf
-inf <= x291 <= +inf
-inf <= x292 <= +inf
-inf <= x293 <= +inf
-inf <= x294 <= +inf
-inf <= x295 <= +inf
-inf <= x296 <= +inf
-inf <= x297 <= +inf
-inf <= x298 <= +inf
-inf <= x299 <= +inf
-inf <= x300 <= +inf
-inf <= x301 <= +inf
-inf <= x302 <= +inf
-inf <= x303 <= +inf
-inf <= x304 <= +inf
-inf <= x305 <= +inf
-inf <= x306 <= +inf
-inf <= x307 <= +inf
-inf <= x308 <= +inf
-inf <= x309 <= +inf
-inf <= x310 <= +inf
-inf <= x311 <= +inf
-inf <= x312 <= +inf
-inf <= x313 <= +inf
-inf <= x314 <= +inf
-inf <= x315 <= +inf
-inf <= x316 <= +inf
-inf <= x317 <= +inf
-inf <= x318 <= +inf
-inf <= x319 <= +inf
-inf <= x320 <= +inf
-inf <= x321 <= +inf
-inf <= x322 <= +inf
-inf <= x323 <= +inf
-inf <= x324 <= +inf
-inf <= x325 <= +inf
-inf <= x326 <= +inf
-inf <= x327 <= +inf
-inf <= x328 <= +inf
-inf <= x329 <= +inf
-inf <= x330 <= +inf
-inf <= x331 <= +inf
-inf <= x332 <= +inf
-inf <= x333 <= +inf
-inf <= x334 <= +inf
-inf <= x335 <= +inf
-inf <= x336 <= +inf
-inf <= x337 <= +inf
-inf <= x338 <= +inf
-inf <= x339 <= +inf
-inf <= x340 <= +inf
-inf <= x341 <= +inf
-inf <= x342 <= +inf
-inf <= x343 <= +inf
-inf <= x344 <= +inf
-inf <= x345 <= +inf
-inf <= x346 <= +inf
-inf <= x347 <= +inf
-inf <= x348 <= +inf
-inf <= x349 <= +inf
-inf <= x350 <= +inf
-inf <= x351 <= +inf
-inf <= x352 <= +inf
-inf <= x353 <= +inf
-inf <= x354 <= +inf
-inf <= x355 <= +inf
-inf <= x356 <= +inf
-inf <= x357 <= +inf
-inf <= x358 <= +inf
-inf <= x359 <= +inf
+0 <= x361 <= +1
+0 <= x363 <= +1
+0 <= x365 <= +1
+0 <= x367 <= +1
+0 <= x369 <= +1
+0 <= x371 <= +1
+0 <= x373 <= +1
+0 <= x375 <= +1
+0 <= x377 <= +1
+0 <= x379 <= +1
+0 <= x381 <= +1
+0 <= x383 <= +1
+0 <= x385 <= +1
+0 <= x387 <= +1
+0 <= x389 <= +1
+0 <= x391 <= +1
+0 <= x393 <= +1
+0 <= x395 <= +1
+0 <= x397 <= +1
+0 <= x399 <= +1
+0 <= x401 <= +1
+0 <= x403 <= +1
+0 <= x405 <= +1
+0 <= x407 <= +1
end
